2621.8
0 6 9 2 1 10 5 3 4 13 16 17 0
0 7 8 14 22 11 19 12 21 0
0 34 31 30 24 23 75 15 27 0
0 40 33 46 43 37 28 41 44 25 26 0
0 29 58 36 45 35 32 52 0
0 38 47 42 39 59 0
0 18 73 51 57 62 56 48 54 49 53 68 67 60 50 65 64 0
0 72 69 63 61 0
0 70 71 55 66 0
0 74 20 0
